p cnf 704 2082
c inputs: 1 2 3 4 5 6 7 8 9 10
c variables for gates: 11 ... 694
c outputs: 695 696 697 698 699 700 701 702 703 704
c random input: -1 -2 3 -4 -5 -6 7 8 -9 -10
11 -3 -8 0
-11 3 0
-11 8 0
12 -4 -8 0
-12 4 0
-12 8 0
13 -5 -8 0
-13 5 0
-13 8 0
14 -3 -9 0
-14 3 0
-14 9 0
15 -4 -9 0
-15 4 0
-15 9 0
16 -5 -9 0
-16 5 0
-16 9 0
17 -3 -10 0
-17 3 0
-17 10 0
18 -4 -10 0
-18 4 0
-18 10 0
19 -5 -10 0
-19 5 0
-19 10 0
20 -12 -14 0
-20 12 0
-20 14 0
21 -12 14 0
-21 12 0
-21 -14 0
22 -14 12 0
-22 14 0
-22 -12 0
23 22 21 0
-23 -22 0
-23 -21 0
24 -15 -13 0
-24 15 0
-24 13 0
25 -13 -17 0
-25 13 0
-25 17 0
26 -15 -17 0
-26 15 0
-26 17 0
27 26 25 0
-27 -26 0
-27 -25 0
28 24 -27 0
-28 -24 0
-28 27 0
29 -15 17 0
-29 15 0
-29 -17 0
30 -17 15 0
-30 17 0
-30 -15 0
31 30 29 0
-31 -30 0
-31 -29 0
32 -13 -31 0
-32 13 0
-32 31 0
33 13 31 0
-33 -13 0
-33 -31 0
34 32 33 0
-34 -32 0
-34 -33 0
35 -18 -16 0
-35 18 0
-35 16 0
36 -16 18 0
-36 16 0
-36 -18 0
37 -18 16 0
-37 18 0
-37 -16 0
38 36 37 0
-38 -36 0
-38 -37 0
39 20 34 0
-39 -20 0
-39 -34 0
40 -20 -34 0
-40 20 0
-40 34 0
41 40 39 0
-41 -40 0
-41 -39 0
42 -20 34 0
-42 20 0
-42 -34 0
43 38 -28 0
-43 -38 0
-43 28 0
44 -38 28 0
-44 38 0
-44 -28 0
45 44 43 0
-45 -44 0
-45 -43 0
46 -42 -45 0
-46 42 0
-46 45 0
47 42 45 0
-47 -42 0
-47 -45 0
48 46 47 0
-48 -46 0
-48 -47 0
49 38 -42 0
-49 -38 0
-49 42 0
50 28 -42 0
-50 -28 0
-50 42 0
51 38 28 0
-51 -38 0
-51 -28 0
52 51 50 0
-52 -51 0
-52 -50 0
53 -52 49 0
-53 52 0
-53 -49 0
54 -19 35 0
-54 19 0
-54 -35 0
55 19 -35 0
-55 -19 0
-55 35 0
56 55 54 0
-56 -55 0
-56 -54 0
57 -56 53 0
-57 56 0
-57 -53 0
58 56 -53 0
-58 -56 0
-58 53 0
59 57 58 0
-59 -57 0
-59 -58 0
60 -19 53 0
-60 19 0
-60 -53 0
61 -35 53 0
-61 35 0
-61 -53 0
62 -19 -35 0
-62 19 0
-62 35 0
63 62 61 0
-63 -62 0
-63 -61 0
64 60 -63 0
-64 -60 0
-64 63 0
65 -1 -6 0
-65 1 0
-65 6 0
66 -2 -6 0
-66 2 0
-66 6 0
67 -1 -7 0
-67 1 0
-67 7 0
68 -2 -7 0
-68 2 0
-68 7 0
69 -66 67 0
-69 66 0
-69 -67 0
70 -67 66 0
-70 67 0
-70 -66 0
71 70 69 0
-71 -70 0
-71 -69 0
72 -66 -67 0
-72 66 0
-72 67 0
73 68 -72 0
-73 -68 0
-73 72 0
74 -68 72 0
-74 68 0
-74 -72 0
75 73 74 0
-75 -73 0
-75 -74 0
76 -68 -72 0
-76 68 0
-76 72 0
77 -3 1 0
-77 3 0
-77 -1 0
78 -1 3 0
-78 1 0
-78 -3 0
79 78 77 0
-79 -78 0
-79 -77 0
80 -4 2 0
-80 4 0
-80 -2 0
81 -2 4 0
-81 2 0
-81 -4 0
82 81 80 0
-82 -81 0
-82 -80 0
83 -1 -3 0
-83 1 0
-83 3 0
84 83 82 0
-84 -83 0
-84 -82 0
85 -83 -82 0
-85 83 0
-85 82 0
86 84 85 0
-86 -84 0
-86 -85 0
87 -2 -4 0
-87 2 0
-87 4 0
88 -1 -3 0
-88 1 0
-88 3 0
89 -4 -88 0
-89 4 0
-89 88 0
90 -1 -3 0
-90 1 0
-90 3 0
91 -2 -90 0
-91 2 0
-91 90 0
92 91 89 0
-92 -91 0
-92 -89 0
93 87 -92 0
-93 -87 0
-93 92 0
94 -5 -93 0
-94 5 0
-94 93 0
95 5 93 0
-95 -5 0
-95 -93 0
96 94 95 0
-96 -94 0
-96 -95 0
97 -5 93 0
-97 5 0
-97 -93 0
98 -8 6 0
-98 8 0
-98 -6 0
99 -6 8 0
-99 6 0
-99 -8 0
100 98 99 0
-100 -98 0
-100 -99 0
101 -9 7 0
-101 9 0
-101 -7 0
102 -7 9 0
-102 7 0
-102 -9 0
103 101 102 0
-103 -101 0
-103 -102 0
104 -6 -8 0
-104 6 0
-104 8 0
105 104 103 0
-105 -104 0
-105 -103 0
106 -104 -103 0
-106 104 0
-106 103 0
107 105 106 0
-107 -105 0
-107 -106 0
108 -7 -9 0
-108 7 0
-108 9 0
109 -6 -8 0
-109 6 0
-109 8 0
110 -9 -109 0
-110 9 0
-110 109 0
111 -6 -8 0
-111 6 0
-111 8 0
112 -7 -111 0
-112 7 0
-112 111 0
113 112 110 0
-113 -112 0
-113 -110 0
114 108 -113 0
-114 -108 0
-114 113 0
115 -10 -114 0
-115 10 0
-115 114 0
116 10 114 0
-116 -10 0
-116 -114 0
117 115 116 0
-117 -115 0
-117 -116 0
118 -10 114 0
-118 10 0
-118 -114 0
119 117 96 0
-119 -117 0
-119 -96 0
120 -97 117 0
-120 97 0
-120 -117 0
121 -118 96 0
-121 118 0
-121 -96 0
122 -97 -118 0
-122 97 0
-122 118 0
123 -120 121 0
-123 120 0
-123 -121 0
124 -121 120 0
-124 121 0
-124 -120 0
125 124 123 0
-125 -124 0
-125 -123 0
126 -120 -121 0
-126 120 0
-126 121 0
127 -126 122 0
-127 126 0
-127 -122 0
128 126 -122 0
-128 -126 0
-128 122 0
129 127 128 0
-129 -127 0
-129 -128 0
130 -126 -122 0
-130 126 0
-130 122 0
131 79 100 0
-131 -79 0
-131 -100 0
132 100 86 0
-132 -100 0
-132 -86 0
133 79 107 0
-133 -79 0
-133 -107 0
134 86 107 0
-134 -86 0
-134 -107 0
135 -132 133 0
-135 132 0
-135 -133 0
136 132 -133 0
-136 -132 0
-136 133 0
137 135 136 0
-137 -135 0
-137 -136 0
138 -132 -133 0
-138 132 0
-138 133 0
139 134 -138 0
-139 -134 0
-139 138 0
140 -134 138 0
-140 134 0
-140 -138 0
141 140 139 0
-141 -140 0
-141 -139 0
142 -134 -138 0
-142 134 0
-142 138 0
143 -79 96 0
-143 79 0
-143 -96 0
144 79 -96 0
-144 -79 0
-144 96 0
145 143 144 0
-145 -143 0
-145 -144 0
146 -97 -86 0
-146 97 0
-146 86 0
147 97 86 0
-147 -97 0
-147 -86 0
148 147 146 0
-148 -147 0
-148 -146 0
149 79 96 0
-149 -79 0
-149 -96 0
150 149 148 0
-150 -149 0
-150 -148 0
151 -149 -148 0
-151 149 0
-151 148 0
152 150 151 0
-152 -150 0
-152 -151 0
153 -97 86 0
-153 97 0
-153 -86 0
154 79 96 0
-154 -79 0
-154 -96 0
155 -97 -154 0
-155 97 0
-155 154 0
156 79 96 0
-156 -79 0
-156 -96 0
157 86 -156 0
-157 -86 0
-157 156 0
158 155 157 0
-158 -155 0
-158 -157 0
159 153 -158 0
-159 -153 0
-159 158 0
160 -100 117 0
-160 100 0
-160 -117 0
161 100 -117 0
-161 -100 0
-161 117 0
162 160 161 0
-162 -160 0
-162 -161 0
163 -118 -107 0
-163 118 0
-163 107 0
164 118 107 0
-164 -118 0
-164 -107 0
165 164 163 0
-165 -164 0
-165 -163 0
166 100 117 0
-166 -100 0
-166 -117 0
167 166 165 0
-167 -166 0
-167 -165 0
168 -166 -165 0
-168 166 0
-168 165 0
169 167 168 0
-169 -167 0
-169 -168 0
170 -118 107 0
-170 118 0
-170 -107 0
171 100 117 0
-171 -100 0
-171 -117 0
172 -118 -171 0
-172 118 0
-172 171 0
173 100 117 0
-173 -100 0
-173 -117 0
174 107 -173 0
-174 -107 0
-174 173 0
175 172 174 0
-175 -172 0
-175 -174 0
176 170 -175 0
-176 -170 0
-176 175 0
177 145 162 0
-177 -145 0
-177 -162 0
178 152 162 0
-178 -152 0
-178 -162 0
179 159 162 0
-179 -159 0
-179 -162 0
180 169 145 0
-180 -169 0
-180 -145 0
181 152 169 0
-181 -152 0
-181 -169 0
182 169 159 0
-182 -169 0
-182 -159 0
183 176 145 0
-183 -176 0
-183 -145 0
184 152 176 0
-184 -152 0
-184 -176 0
185 159 176 0
-185 -159 0
-185 -176 0
186 -178 -180 0
-186 178 0
-186 180 0
187 -178 180 0
-187 178 0
-187 -180 0
188 178 -180 0
-188 -178 0
-188 180 0
189 187 188 0
-189 -187 0
-189 -188 0
190 -179 -181 0
-190 179 0
-190 181 0
191 -179 -183 0
-191 179 0
-191 183 0
192 -183 -181 0
-192 183 0
-192 181 0
193 192 191 0
-193 -192 0
-193 -191 0
194 -193 190 0
-194 193 0
-194 -190 0
195 183 -181 0
-195 -183 0
-195 181 0
196 -183 181 0
-196 183 0
-196 -181 0
197 195 196 0
-197 -195 0
-197 -196 0
198 -179 -197 0
-198 179 0
-198 197 0
199 179 197 0
-199 -179 0
-199 -197 0
200 198 199 0
-200 -198 0
-200 -199 0
201 -182 -184 0
-201 182 0
-201 184 0
202 -182 184 0
-202 182 0
-202 -184 0
203 182 -184 0
-203 -182 0
-203 184 0
204 202 203 0
-204 -202 0
-204 -203 0
205 200 186 0
-205 -200 0
-205 -186 0
206 -200 -186 0
-206 200 0
-206 186 0
207 206 205 0
-207 -206 0
-207 -205 0
208 200 -186 0
-208 -200 0
-208 186 0
209 204 -194 0
-209 -204 0
-209 194 0
210 -204 194 0
-210 204 0
-210 -194 0
211 210 209 0
-211 -210 0
-211 -209 0
212 -208 -211 0
-212 208 0
-212 211 0
213 208 211 0
-213 -208 0
-213 -211 0
214 213 212 0
-214 -213 0
-214 -212 0
215 -208 204 0
-215 208 0
-215 -204 0
216 -208 194 0
-216 208 0
-216 -194 0
217 204 194 0
-217 -204 0
-217 -194 0
218 216 217 0
-218 -216 0
-218 -217 0
219 -218 215 0
-219 218 0
-219 -215 0
220 201 -185 0
-220 -201 0
-220 185 0
221 -201 185 0
-221 201 0
-221 -185 0
222 220 221 0
-222 -220 0
-222 -221 0
223 219 -222 0
-223 -219 0
-223 222 0
224 -219 222 0
-224 219 0
-224 -222 0
225 223 224 0
-225 -223 0
-225 -224 0
226 219 -185 0
-226 -219 0
-226 185 0
227 -201 219 0
-227 201 0
-227 -219 0
228 -201 -185 0
-228 201 0
-228 185 0
229 228 227 0
-229 -228 0
-229 -227 0
230 226 -229 0
-230 -226 0
-230 229 0
231 -125 -119 0
-231 125 0
-231 119 0
232 125 119 0
-232 -125 0
-232 -119 0
233 232 231 0
-233 -232 0
-233 -231 0
234 -125 119 0
-234 125 0
-234 -119 0
235 234 -129 0
-235 -234 0
-235 129 0
236 -234 129 0
-236 234 0
-236 -129 0
237 236 235 0
-237 -236 0
-237 -235 0
238 -234 -129 0
-238 234 0
-238 129 0
239 238 130 0
-239 -238 0
-239 -130 0
240 -238 -130 0
-240 238 0
-240 130 0
241 240 239 0
-241 -240 0
-241 -239 0
242 -238 130 0
-242 238 0
-242 -130 0
243 -177 119 0
-243 177 0
-243 -119 0
244 177 -119 0
-244 -177 0
-244 119 0
245 243 244 0
-245 -243 0
-245 -244 0
246 189 -233 0
-246 -189 0
-246 233 0
247 -189 233 0
-247 189 0
-247 -233 0
248 246 247 0
-248 -246 0
-248 -247 0
249 -177 -119 0
-249 177 0
-249 119 0
250 248 249 0
-250 -248 0
-250 -249 0
251 -248 -249 0
-251 248 0
-251 249 0
252 251 250 0
-252 -251 0
-252 -250 0
253 189 233 0
-253 -189 0
-253 -233 0
254 -177 -119 0
-254 177 0
-254 119 0
255 189 -254 0
-255 -189 0
-255 254 0
256 -177 -119 0
-256 177 0
-256 119 0
257 233 -256 0
-257 -233 0
-257 256 0
258 255 257 0
-258 -255 0
-258 -257 0
259 253 -258 0
-259 -253 0
-259 258 0
260 -237 207 0
-260 237 0
-260 -207 0
261 237 -207 0
-261 -237 0
-261 207 0
262 261 260 0
-262 -261 0
-262 -260 0
263 262 -259 0
-263 -262 0
-263 259 0
264 -262 259 0
-264 262 0
-264 -259 0
265 264 263 0
-265 -264 0
-265 -263 0
266 237 207 0
-266 -237 0
-266 -207 0
267 259 207 0
-267 -259 0
-267 -207 0
268 237 259 0
-268 -237 0
-268 -259 0
269 267 268 0
-269 -267 0
-269 -268 0
270 266 -269 0
-270 -266 0
-270 269 0
271 -241 214 0
-271 241 0
-271 -214 0
272 241 -214 0
-272 -241 0
-272 214 0
273 272 271 0
-273 -272 0
-273 -271 0
274 273 -270 0
-274 -273 0
-274 270 0
275 -273 270 0
-275 273 0
-275 -270 0
276 274 275 0
-276 -274 0
-276 -275 0
277 241 214 0
-277 -241 0
-277 -214 0
278 270 214 0
-278 -270 0
-278 -214 0
279 270 241 0
-279 -270 0
-279 -241 0
280 279 278 0
-280 -279 0
-280 -278 0
281 -280 277 0
-281 280 0
-281 -277 0
282 225 -242 0
-282 -225 0
-282 242 0
283 -225 242 0
-283 225 0
-283 -242 0
284 282 283 0
-284 -282 0
-284 -283 0
285 284 -281 0
-285 -284 0
-285 281 0
286 -284 281 0
-286 284 0
-286 -281 0
287 285 286 0
-287 -285 0
-287 -286 0
288 225 242 0
-288 -225 0
-288 -242 0
289 225 281 0
-289 -225 0
-289 -281 0
290 242 281 0
-290 -242 0
-290 -281 0
291 289 290 0
-291 -289 0
-291 -290 0
292 288 -291 0
-292 -288 0
-292 291 0
293 -242 230 0
-293 242 0
-293 -230 0
294 242 -230 0
-294 -242 0
-294 230 0
295 294 293 0
-295 -294 0
-295 -293 0
296 -292 295 0
-296 292 0
-296 -295 0
297 292 -295 0
-297 -292 0
-297 295 0
298 296 297 0
-298 -296 0
-298 -297 0
299 -131 -137 0
-299 131 0
-299 137 0
300 131 137 0
-300 -131 0
-300 -137 0
301 300 299 0
-301 -300 0
-301 -299 0
302 131 -137 0
-302 -131 0
-302 137 0
303 -141 302 0
-303 141 0
-303 -302 0
304 141 -302 0
-304 -141 0
-304 302 0
305 304 303 0
-305 -304 0
-305 -303 0
306 -141 -302 0
-306 141 0
-306 302 0
307 306 142 0
-307 -306 0
-307 -142 0
308 -306 -142 0
-308 306 0
-308 142 0
309 307 308 0
-309 -307 0
-309 -308 0
310 -306 142 0
-310 306 0
-310 -142 0
311 131 245 0
-311 -131 0
-311 -245 0
312 -131 -245 0
-312 131 0
-312 245 0
313 312 311 0
-313 -312 0
-313 -311 0
314 -301 252 0
-314 301 0
-314 -252 0
315 301 -252 0
-315 -301 0
-315 252 0
316 314 315 0
-316 -314 0
-316 -315 0
317 -131 245 0
-317 131 0
-317 -245 0
318 317 316 0
-318 -317 0
-318 -316 0
319 -317 -316 0
-319 317 0
-319 316 0
320 318 319 0
-320 -318 0
-320 -319 0
321 301 252 0
-321 -301 0
-321 -252 0
322 -131 245 0
-322 131 0
-322 -245 0
323 252 -322 0
-323 -252 0
-323 322 0
324 -131 245 0
-324 131 0
-324 -245 0
325 301 -324 0
-325 -301 0
-325 324 0
326 323 325 0
-326 -323 0
-326 -325 0
327 -326 321 0
-327 326 0
-327 -321 0
328 -305 265 0
-328 305 0
-328 -265 0
329 305 -265 0
-329 -305 0
-329 265 0
330 329 328 0
-330 -329 0
-330 -328 0
331 330 -327 0
-331 -330 0
-331 327 0
332 -330 327 0
-332 330 0
-332 -327 0
333 332 331 0
-333 -332 0
-333 -331 0
334 305 265 0
-334 -305 0
-334 -265 0
335 327 265 0
-335 -327 0
-335 -265 0
336 305 327 0
-336 -305 0
-336 -327 0
337 336 335 0
-337 -336 0
-337 -335 0
338 -337 334 0
-338 337 0
-338 -334 0
339 -309 276 0
-339 309 0
-339 -276 0
340 309 -276 0
-340 -309 0
-340 276 0
341 339 340 0
-341 -339 0
-341 -340 0
342 341 -338 0
-342 -341 0
-342 338 0
343 -341 338 0
-343 341 0
-343 -338 0
344 342 343 0
-344 -342 0
-344 -343 0
345 309 276 0
-345 -309 0
-345 -276 0
346 276 338 0
-346 -276 0
-346 -338 0
347 309 338 0
-347 -309 0
-347 -338 0
348 346 347 0
-348 -346 0
-348 -347 0
349 345 -348 0
-349 -345 0
-349 348 0
350 287 -310 0
-350 -287 0
-350 310 0
351 -287 310 0
-351 287 0
-351 -310 0
352 351 350 0
-352 -351 0
-352 -350 0
353 352 -349 0
-353 -352 0
-353 349 0
354 -352 349 0
-354 352 0
-354 -349 0
355 354 353 0
-355 -354 0
-355 -353 0
356 287 310 0
-356 -287 0
-356 -310 0
357 287 349 0
-357 -287 0
-357 -349 0
358 310 349 0
-358 -310 0
-358 -349 0
359 357 358 0
-359 -357 0
-359 -358 0
360 356 -359 0
-360 -356 0
-360 359 0
361 -310 298 0
-361 310 0
-361 -298 0
362 310 -298 0
-362 -310 0
-362 298 0
363 361 362 0
-363 -361 0
-363 -362 0
364 -360 363 0
-364 360 0
-364 -363 0
365 360 -363 0
-365 -360 0
-365 363 0
366 365 364 0
-366 -365 0
-366 -364 0
367 -313 141 0
-367 313 0
-367 -141 0
368 313 -141 0
-368 -313 0
-368 141 0
369 367 368 0
-369 -367 0
-369 -368 0
370 313 141 0
-370 -313 0
-370 -141 0
371 -320 -142 0
-371 320 0
-371 142 0
372 320 142 0
-372 -320 0
-372 -142 0
373 371 372 0
-373 -371 0
-373 -372 0
374 373 370 0
-374 -373 0
-374 -370 0
375 -373 -370 0
-375 373 0
-375 370 0
376 374 375 0
-376 -374 0
-376 -375 0
377 320 -142 0
-377 -320 0
-377 142 0
378 -370 -142 0
-378 370 0
-378 142 0
379 320 -370 0
-379 -320 0
-379 370 0
380 379 378 0
-380 -379 0
-380 -378 0
381 -380 377 0
-381 380 0
-381 -377 0
382 -119 -381 0
-382 119 0
-382 381 0
383 119 381 0
-383 -119 0
-383 -381 0
384 382 383 0
-384 -382 0
-384 -383 0
385 333 -384 0
-385 -333 0
-385 384 0
386 -333 384 0
-386 333 0
-386 -384 0
387 386 385 0
-387 -386 0
-387 -385 0
388 333 -119 0
-388 -333 0
-388 119 0
389 333 381 0
-389 -333 0
-389 -381 0
390 -119 381 0
-390 119 0
-390 -381 0
391 390 389 0
-391 -390 0
-391 -389 0
392 -391 388 0
-392 391 0
-392 -388 0
393 125 -392 0
-393 -125 0
-393 392 0
394 -125 392 0
-394 125 0
-394 -392 0
395 394 393 0
-395 -394 0
-395 -393 0
396 344 -395 0
-396 -344 0
-396 395 0
397 -344 395 0
-397 344 0
-397 -395 0
398 397 396 0
-398 -397 0
-398 -396 0
399 344 125 0
-399 -344 0
-399 -125 0
400 344 392 0
-400 -344 0
-400 -392 0
401 125 392 0
-401 -125 0
-401 -392 0
402 401 400 0
-402 -401 0
-402 -400 0
403 -402 399 0
-403 402 0
-403 -399 0
404 -403 129 0
-404 403 0
-404 -129 0
405 403 -129 0
-405 -403 0
-405 129 0
406 404 405 0
-406 -404 0
-406 -405 0
407 355 -406 0
-407 -355 0
-407 406 0
408 -355 406 0
-408 355 0
-408 -406 0
409 407 408 0
-409 -407 0
-409 -408 0
410 355 129 0
-410 -355 0
-410 -129 0
411 403 355 0
-411 -403 0
-411 -355 0
412 403 129 0
-412 -403 0
-412 -129 0
413 411 412 0
-413 -411 0
-413 -412 0
414 -413 410 0
-414 413 0
-414 -410 0
415 -130 -414 0
-415 130 0
-415 414 0
416 130 414 0
-416 -130 0
-416 -414 0
417 415 416 0
-417 -415 0
-417 -416 0
418 -417 366 0
-418 417 0
-418 -366 0
419 417 -366 0
-419 -417 0
-419 366 0
420 418 419 0
-420 -418 0
-420 -419 0
421 -130 366 0
-421 130 0
-421 -366 0
422 366 414 0
-422 -366 0
-422 -414 0
423 -130 414 0
-423 130 0
-423 -414 0
424 423 422 0
-424 -423 0
-424 -422 0
425 -424 421 0
-425 424 0
-425 -421 0
426 -11 -23 0
-426 11 0
-426 23 0
427 11 23 0
-427 -11 0
-427 -23 0
428 426 427 0
-428 -426 0
-428 -427 0
429 11 -23 0
-429 -11 0
-429 23 0
430 429 -41 0
-430 -429 0
-430 41 0
431 -429 41 0
-431 429 0
-431 -41 0
432 431 430 0
-432 -431 0
-432 -430 0
433 -429 -41 0
-433 429 0
-433 41 0
434 433 -48 0
-434 -433 0
-434 48 0
435 -433 48 0
-435 433 0
-435 -48 0
436 435 434 0
-436 -435 0
-436 -434 0
437 -433 -48 0
-437 433 0
-437 48 0
438 -59 437 0
-438 59 0
-438 -437 0
439 59 -437 0
-439 -59 0
-439 437 0
440 439 438 0
-440 -439 0
-440 -438 0
441 -59 -437 0
-441 59 0
-441 437 0
442 -64 441 0
-442 64 0
-442 -441 0
443 64 -441 0
-443 -64 0
-443 441 0
444 443 442 0
-444 -443 0
-444 -442 0
445 -64 -441 0
-445 64 0
-445 441 0
446 11 -131 0
-446 -11 0
-446 131 0
447 -11 131 0
-447 11 0
-447 -131 0
448 447 446 0
-448 -447 0
-448 -446 0
449 -428 137 0
-449 428 0
-449 -137 0
450 428 -137 0
-450 -428 0
-450 137 0
451 450 449 0
-451 -450 0
-451 -449 0
452 -11 -131 0
-452 11 0
-452 131 0
453 452 451 0
-453 -452 0
-453 -451 0
454 -452 -451 0
-454 452 0
-454 451 0
455 454 453 0
-455 -454 0
-455 -453 0
456 428 137 0
-456 -428 0
-456 -137 0
457 -11 -131 0
-457 11 0
-457 131 0
458 -457 137 0
-458 457 0
-458 -137 0
459 -11 -131 0
-459 11 0
-459 131 0
460 -459 428 0
-460 459 0
-460 -428 0
461 460 458 0
-461 -460 0
-461 -458 0
462 456 -461 0
-462 -456 0
-462 461 0
463 369 -432 0
-463 -369 0
-463 432 0
464 -369 432 0
-464 369 0
-464 -432 0
465 463 464 0
-465 -463 0
-465 -464 0
466 -462 465 0
-466 462 0
-466 -465 0
467 462 -465 0
-467 -462 0
-467 465 0
468 467 466 0
-468 -467 0
-468 -466 0
469 369 432 0
-469 -369 0
-469 -432 0
470 369 462 0
-470 -369 0
-470 -462 0
471 462 432 0
-471 -462 0
-471 -432 0
472 471 470 0
-472 -471 0
-472 -470 0
473 -472 469 0
-473 472 0
-473 -469 0
474 376 -436 0
-474 -376 0
-474 436 0
475 -376 436 0
-475 376 0
-475 -436 0
476 475 474 0
-476 -475 0
-476 -474 0
477 476 -473 0
-477 -476 0
-477 473 0
478 -476 473 0
-478 476 0
-478 -473 0
479 478 477 0
-479 -478 0
-479 -477 0
480 376 436 0
-480 -376 0
-480 -436 0
481 376 473 0
-481 -376 0
-481 -473 0
482 473 436 0
-482 -473 0
-482 -436 0
483 482 481 0
-483 -482 0
-483 -481 0
484 480 -483 0
-484 -480 0
-484 483 0
485 -440 387 0
-485 440 0
-485 -387 0
486 440 -387 0
-486 -440 0
-486 387 0
487 485 486 0
-487 -485 0
-487 -486 0
488 -484 487 0
-488 484 0
-488 -487 0
489 484 -487 0
-489 -484 0
-489 487 0
490 489 488 0
-490 -489 0
-490 -488 0
491 440 387 0
-491 -440 0
-491 -387 0
492 484 387 0
-492 -484 0
-492 -387 0
493 440 484 0
-493 -440 0
-493 -484 0
494 493 492 0
-494 -493 0
-494 -492 0
495 491 -494 0
-495 -491 0
-495 494 0
496 -444 398 0
-496 444 0
-496 -398 0
497 444 -398 0
-497 -444 0
-497 398 0
498 497 496 0
-498 -497 0
-498 -496 0
499 -495 498 0
-499 495 0
-499 -498 0
500 495 -498 0
-500 -495 0
-500 498 0
501 500 499 0
-501 -500 0
-501 -499 0
502 444 398 0
-502 -444 0
-502 -398 0
503 495 398 0
-503 -495 0
-503 -398 0
504 495 444 0
-504 -495 0
-504 -444 0
505 503 504 0
-505 -503 0
-505 -504 0
506 502 -505 0
-506 -502 0
-506 505 0
507 409 -445 0
-507 -409 0
-507 445 0
508 -409 445 0
-508 409 0
-508 -445 0
509 507 508 0
-509 -507 0
-509 -508 0
510 -506 509 0
-510 506 0
-510 -509 0
511 506 -509 0
-511 -506 0
-511 509 0
512 510 511 0
-512 -510 0
-512 -511 0
513 409 445 0
-513 -409 0
-513 -445 0
514 506 409 0
-514 -506 0
-514 -409 0
515 506 445 0
-515 -506 0
-515 -445 0
516 515 514 0
-516 -515 0
-516 -514 0
517 -516 513 0
-517 516 0
-517 -513 0
518 420 -445 0
-518 -420 0
-518 445 0
519 -420 445 0
-519 420 0
-519 -445 0
520 519 518 0
-520 -519 0
-520 -518 0
521 520 -517 0
-521 -520 0
-521 517 0
522 -520 517 0
-522 520 0
-522 -517 0
523 521 522 0
-523 -521 0
-523 -522 0
524 -65 -71 0
-524 65 0
-524 71 0
525 65 71 0
-525 -65 0
-525 -71 0
526 524 525 0
-526 -524 0
-526 -525 0
527 65 -71 0
-527 -65 0
-527 71 0
528 527 -75 0
-528 -527 0
-528 75 0
529 -527 75 0
-529 527 0
-529 -75 0
530 529 528 0
-530 -529 0
-530 -528 0
531 -527 -75 0
-531 527 0
-531 75 0
532 76 531 0
-532 -76 0
-532 -531 0
533 -76 -531 0
-533 76 0
-533 531 0
534 532 533 0
-534 -532 0
-534 -533 0
535 76 -531 0
-535 -76 0
-535 531 0
536 65 448 0
-536 -65 0
-536 -448 0
537 -65 -448 0
-537 65 0
-537 448 0
538 537 536 0
-538 -537 0
-538 -536 0
539 455 -526 0
-539 -455 0
-539 526 0
540 -455 526 0
-540 455 0
-540 -526 0
541 539 540 0
-541 -539 0
-541 -540 0
542 -65 448 0
-542 65 0
-542 -448 0
543 542 541 0
-543 -542 0
-543 -541 0
544 -542 -541 0
-544 542 0
-544 541 0
545 543 544 0
-545 -543 0
-545 -544 0
546 455 526 0
-546 -455 0
-546 -526 0
547 -65 448 0
-547 65 0
-547 -448 0
548 455 -547 0
-548 -455 0
-548 547 0
549 -65 448 0
-549 65 0
-549 -448 0
550 526 -549 0
-550 -526 0
-550 549 0
551 548 550 0
-551 -548 0
-551 -550 0
552 -551 546 0
-552 551 0
-552 -546 0
553 -530 468 0
-553 530 0
-553 -468 0
554 530 -468 0
-554 -530 0
-554 468 0
555 553 554 0
-555 -553 0
-555 -554 0
556 -552 555 0
-556 552 0
-556 -555 0
557 552 -555 0
-557 -552 0
-557 555 0
558 556 557 0
-558 -556 0
-558 -557 0
559 530 468 0
-559 -530 0
-559 -468 0
560 552 468 0
-560 -552 0
-560 -468 0
561 552 530 0
-561 -552 0
-561 -530 0
562 561 560 0
-562 -561 0
-562 -560 0
563 559 -562 0
-563 -559 0
-563 562 0
564 479 -534 0
-564 -479 0
-564 534 0
565 -479 534 0
-565 479 0
-565 -534 0
566 565 564 0
-566 -565 0
-566 -564 0
567 566 -563 0
-567 -566 0
-567 563 0
568 -566 563 0
-568 566 0
-568 -563 0
569 567 568 0
-569 -567 0
-569 -568 0
570 479 534 0
-570 -479 0
-570 -534 0
571 479 563 0
-571 -479 0
-571 -563 0
572 534 563 0
-572 -534 0
-572 -563 0
573 571 572 0
-573 -571 0
-573 -572 0
574 570 -573 0
-574 -570 0
-574 573 0
575 -535 490 0
-575 535 0
-575 -490 0
576 535 -490 0
-576 -535 0
-576 490 0
577 576 575 0
-577 -576 0
-577 -575 0
578 577 -574 0
-578 -577 0
-578 574 0
579 -577 574 0
-579 577 0
-579 -574 0
580 579 578 0
-580 -579 0
-580 -578 0
581 535 490 0
-581 -535 0
-581 -490 0
582 490 574 0
-582 -490 0
-582 -574 0
583 535 574 0
-583 -535 0
-583 -574 0
584 582 583 0
-584 -582 0
-584 -583 0
585 -584 581 0
-585 584 0
-585 -581 0
586 501 -535 0
-586 -501 0
-586 535 0
587 -501 535 0
-587 501 0
-587 -535 0
588 587 586 0
-588 -587 0
-588 -586 0
589 588 -585 0
-589 -588 0
-589 585 0
590 -588 585 0
-590 588 0
-590 -585 0
591 590 589 0
-591 -590 0
-591 -589 0
592 501 535 0
-592 -501 0
-592 -535 0
593 501 585 0
-593 -501 0
-593 -585 0
594 535 585 0
-594 -535 0
-594 -585 0
595 593 594 0
-595 -593 0
-595 -594 0
596 592 -595 0
-596 -592 0
-596 595 0
597 -535 512 0
-597 535 0
-597 -512 0
598 535 -512 0
-598 -535 0
-598 512 0
599 598 597 0
-599 -598 0
-599 -597 0
600 -596 599 0
-600 596 0
-600 -599 0
601 596 -599 0
-601 -596 0
-601 599 0
602 600 601 0
-602 -600 0
-602 -601 0
603 535 512 0
-603 -535 0
-603 -512 0
604 512 596 0
-604 -512 0
-604 -596 0
605 535 596 0
-605 -535 0
-605 -596 0
606 604 605 0
-606 -604 0
-606 -605 0
607 -606 603 0
-607 606 0
-607 -603 0
608 -535 523 0
-608 535 0
-608 -523 0
609 535 -523 0
-609 -535 0
-609 523 0
610 608 609 0
-610 -608 0
-610 -609 0
611 610 -607 0
-611 -610 0
-611 607 0
612 -610 607 0
-612 610 0
-612 -607 0
613 611 612 0
-613 -611 0
-613 -612 0
614 75 -538 0
-614 -75 0
-614 538 0
615 -75 538 0
-615 75 0
-615 -538 0
616 614 615 0
-616 -614 0
-616 -615 0
617 75 538 0
-617 -75 0
-617 -538 0
618 -76 -545 0
-618 76 0
-618 545 0
619 76 545 0
-619 -76 0
-619 -545 0
620 618 619 0
-620 -618 0
-620 -619 0
621 620 617 0
-621 -620 0
-621 -617 0
622 -620 -617 0
-622 620 0
-622 617 0
623 622 621 0
-623 -622 0
-623 -621 0
624 -76 545 0
-624 76 0
-624 -545 0
625 -76 -617 0
-625 76 0
-625 617 0
626 545 -617 0
-626 -545 0
-626 617 0
627 626 625 0
-627 -626 0
-627 -625 0
628 624 -627 0
-628 -624 0
-628 627 0
629 -11 -628 0
-629 11 0
-629 628 0
630 11 628 0
-630 -11 0
-630 -628 0
631 629 630 0
-631 -629 0
-631 -630 0
632 558 -631 0
-632 -558 0
-632 631 0
633 -558 631 0
-633 558 0
-633 -631 0
634 633 632 0
-634 -633 0
-634 -632 0
635 -11 558 0
-635 11 0
-635 -558 0
636 628 558 0
-636 -628 0
-636 -558 0
637 -11 628 0
-637 11 0
-637 -628 0
638 637 636 0
-638 -637 0
-638 -636 0
639 635 -638 0
-639 -635 0
-639 638 0
640 23 -639 0
-640 -23 0
-640 639 0
641 -23 639 0
-641 23 0
-641 -639 0
642 641 640 0
-642 -641 0
-642 -640 0
643 569 -642 0
-643 -569 0
-643 642 0
644 -569 642 0
-644 569 0
-644 -642 0
645 644 643 0
-645 -644 0
-645 -643 0
646 23 569 0
-646 -23 0
-646 -569 0
647 569 639 0
-647 -569 0
-647 -639 0
648 23 639 0
-648 -23 0
-648 -639 0
649 648 647 0
-649 -648 0
-649 -647 0
650 -649 646 0
-650 649 0
-650 -646 0
651 -650 41 0
-651 650 0
-651 -41 0
652 650 -41 0
-652 -650 0
-652 41 0
653 651 652 0
-653 -651 0
-653 -652 0
654 -653 580 0
-654 653 0
-654 -580 0
655 653 -580 0
-655 -653 0
-655 580 0
656 654 655 0
-656 -654 0
-656 -655 0
657 41 580 0
-657 -41 0
-657 -580 0
658 650 580 0
-658 -650 0
-658 -580 0
659 650 41 0
-659 -650 0
-659 -41 0
660 659 658 0
-660 -659 0
-660 -658 0
661 -660 657 0
-661 660 0
-661 -657 0
662 -661 48 0
-662 661 0
-662 -48 0
663 661 -48 0
-663 -661 0
-663 48 0
664 662 663 0
-664 -662 0
-664 -663 0
665 591 -664 0
-665 -591 0
-665 664 0
666 -591 664 0
-666 591 0
-666 -664 0
667 666 665 0
-667 -666 0
-667 -665 0
668 591 48 0
-668 -591 0
-668 -48 0
669 661 591 0
-669 -661 0
-669 -591 0
670 661 48 0
-670 -661 0
-670 -48 0
671 669 670 0
-671 -669 0
-671 -670 0
672 668 -671 0
-672 -668 0
-672 671 0
673 -672 59 0
-673 672 0
-673 -59 0
674 672 -59 0
-674 -672 0
-674 59 0
675 674 673 0
-675 -674 0
-675 -673 0
676 -675 602 0
-676 675 0
-676 -602 0
677 675 -602 0
-677 -675 0
-677 602 0
678 676 677 0
-678 -676 0
-678 -677 0
679 59 602 0
-679 -59 0
-679 -602 0
680 672 602 0
-680 -672 0
-680 -602 0
681 672 59 0
-681 -672 0
-681 -59 0
682 681 680 0
-682 -681 0
-682 -680 0
683 679 -682 0
-683 -679 0
-683 682 0
684 -683 64 0
-684 683 0
-684 -64 0
685 683 -64 0
-685 -683 0
-685 64 0
686 684 685 0
-686 -684 0
-686 -685 0
687 -686 613 0
-687 686 0
-687 -613 0
688 686 -613 0
-688 -686 0
-688 613 0
689 688 687 0
-689 -688 0
-689 -687 0
690 64 613 0
-690 -64 0
-690 -613 0
691 683 613 0
-691 -683 0
-691 -613 0
692 683 64 0
-692 -683 0
-692 -64 0
693 691 692 0
-693 -691 0
-693 -692 0
694 -693 690 0
-694 693 0
-694 -690 0
-695 65 0
695 -65 0
-696 -71 0
696 71 0
-697 -616 0
697 616 0
-698 -623 0
698 623 0
-699 -634 0
699 634 0
-700 -645 0
700 645 0
-701 -656 0
701 656 0
-702 -667 0
702 667 0
-703 -678 0
703 678 0
-704 -689 0
704 689 0
-695 0
-696 0
-697 0
698 0
699 0
-700 0
-701 0
-702 0
-703 0
-704 0
